1787
2229
3072
1301
2846
2229
1318
2475
1146
2914
2035
2864
1309
2096
1985
1203
1231
1822
1462
1309
573
3175
571
1414
3220
3663
2642
3089
2548
1707
3772
1025
1183
390
665
3186
3671
3171
3651
2455
1343
2536
741
3093
2862
514
3460
2285
2479
2479
721
626
2407
2645
2756
499
2236
932
808
299
3304
2916
2927
1567
2125
2040
1190
2685
2002
1663

21229
24476
34788
5665
33929
30300
6811
29696
14036
35329
22089
38480
5633
22279
20115

667
769
1093
178
1066
952
214
933
441
1110
694
1209
177
700
632

2167

68
78
111
19
108
97
22
95
45
113
71
123
18
71
64
46
49
80
61
44
3
126
19
53
139
148
105
131
124
61
143
45
58
13
18
141
142
145
142
79
42
77
13
107
94
20
128
110
119
93
28
22
79
116
133
17
86
34
14
7
122
101
139
35
84
62
35
133
84
69
